data;
set K:= K1 K2 K3 K4 K5 K6 K7 K8 K9 K10 K11 K12 K13 K14 K15 ;

set F:= F1 F2 F3 ;

set Q:= Q1 Q2 ;

param T:= 45;
param V: 
	K1  K2  K3  K4  K5  K6  K7  K8  K9  K10 K11 K12 K13 K14 K15 :=
Q1	1   1   1   1   1   1   1   1   1   0   0   0   0   0   0   
Q2	0   0   0   0   0   0   0   0   0   1   1   1   1   1   1   
; # if resorce k is of type q

param TF:= 
K1 6
K2 6
K3 6
K4 6
K5 6
K6 6
K7 6
K8 6
K9 6
K10 12
K11 12
K12 12
K13 12
K14 12
K15 12
; # number of continuous time slots resource can fly

param TR:= 
K1 2
K2 2
K3 2
K4 2
K5 2
K6 2
K7 2
K8 2
K9 2
K10 4
K11 4
K12 4
K13 4
K14 4
K15 4
; #  number of continuous time slots resource k needs to rest between flights

param P:= 
K1 36
K2 36
K3 36
K4 36
K5 36
K6 36
K7 36
K8 36
K9 36
K10 36
K11 36
K12 36
K13 36
K14 36
K15 36
; #  number of continuous time slots a pilot can be present including rest times for resource k 

param N:= 
K1 4
K2 4
K3 4
K4 4
K5 4
K6 4
K7 4
K8 4
K9 4
K10 2
K11 2
K12 1
K13 1
K14 1
K15 1
; # max number of flights resource k can fly in the total time period

param A: 
	K1  K2  K3  K4  K5  K6  K7  K8  K9  K10 K11 K12 K13 K14 K15 :=
1	1   1   1   1   1   1   1   1   1   1   1   0   1   0   0   
2	1   1   1   1   1   1   1   1   1   1   1   0   1   0   0   
3	1   1   1   1   1   1   1   1   1   1   1   0   1   0   0   
4	1   1   1   1   1   1   1   1   1   1   1   0   1   0   0   
5	1   1   1   1   1   1   1   1   1   1   1   0   1   0   0   
6	1   1   1   1   1   1   1   1   1   1   1   0   1   0   0   
7	1   1   1   1   1   1   1   1   1   1   1   0   1   0   0   
8	1   1   1   1   1   1   1   1   1   1   1   0   1   0   0   
9	1   1   1   1   1   1   1   1   1   1   1   0   1   0   0   
10	1   1   1   1   1   1   1   1   1   1   1   0   1   0   0   
11	1   1   1   1   1   1   1   1   1   1   1   0   1   0   1   
12	1   1   1   1   1   1   1   1   1   1   1   0   1   0   1   
13	1   1   1   1   1   1   1   1   1   1   1   1   1   0   1   
14	1   1   1   1   1   1   1   1   1   1   1   1   1   0   1   
15	1   1   1   1   1   1   1   1   1   1   1   1   1   0   1   
16	1   1   1   1   1   1   1   1   1   1   1   1   1   1   1   
17	1   1   1   1   1   1   1   1   1   1   1   1   1   1   1   
18	1   1   1   1   1   1   1   1   1   1   1   1   1   1   1   
19	1   1   1   1   1   1   1   1   1   1   1   1   1   1   1   
20	1   1   1   1   1   1   1   1   1   1   1   1   1   1   1   
21	1   1   1   1   1   1   1   1   1   1   1   1   1   1   1   
22	1   1   1   1   1   1   1   1   1   1   1   1   1   1   1   
23	1   1   1   1   1   1   1   1   1   1   1   1   1   1   1   
24	1   1   1   1   1   1   1   1   1   1   1   1   1   1   1   
25	1   1   1   1   1   1   1   1   1   1   1   1   1   1   1   
26	1   1   1   1   1   1   1   1   1   1   1   1   1   1   1   
27	1   1   1   1   1   1   1   1   1   1   1   1   1   1   1   
28	1   1   1   1   1   1   1   1   1   1   1   1   1   1   1   
29	1   1   1   1   1   1   1   1   1   1   1   1   1   1   1   
30	1   1   1   1   1   1   1   1   1   1   1   1   1   1   1   
31	1   1   1   1   1   1   1   1   1   1   1   1   1   1   1   
32	1   1   1   1   1   1   1   1   1   1   1   1   1   1   1   
33	1   1   1   1   1   1   1   1   1   1   1   1   1   1   1   
34	1   1   1   1   1   1   1   1   1   1   1   1   1   1   1   
35	1   1   1   1   1   1   1   1   1   1   1   1   1   1   1   
36	1   1   1   1   1   1   1   1   1   1   1   1   1   1   1   
37	1   1   1   1   1   1   1   1   1   1   1   1   1   1   1   
38	1   1   1   1   1   1   1   1   1   1   1   1   0   1   1   
39	1   1   1   1   1   1   1   1   1   1   1   1   0   1   1   
40	1   1   1   1   1   1   1   1   1   1   1   1   0   1   1   
41	1   1   1   1   1   1   1   1   1   1   1   1   0   1   1   
42	1   1   1   1   1   1   1   1   1   1   1   1   0   1   1   
43	1   1   1   1   1   1   1   1   1   1   1   1   0   1   1   
44	1   1   1   1   1   1   1   1   1   1   1   1   0   1   1   
45	1   1   1   1   1   1   1   1   1   1   1   1   0   1   1   
; # availability of resorce k in time slot t

param B: 
	F1  F2  F3  :=
Q1	0   0   0   
Q2	0   0   0   
; # if front f requires resources of type q

param U: 
	F1  F2  F3  :=
K1	0   0   0   
K2	0   0   0   
K3	0   0   0   
K4	0   0   0   
K5	0   0   0   
K6	0   0   0   
K7	0   0   0   
K8	0   0   0   
K9	0   0   0   
K10	1   1   1   
K11	2   2   2   
K12	2   2   2   
K13	2   2   2   
K14	2   2   2   
K15	0   0   0   
; # transit time of resource

param C:= 
K1 900
K2 900
K3 900
K4 900
K5 900
K6 1500
K7 1500
K8 4500
K9 4500
K10 5500
K11 5500
K12 5500
K13 5500
K14 5500
K15 5500
; #  water capacity of resource k

param S:= 
F1 7
F2 10
F3 9
; # max number of resources that can fly at front f in the same time slot

param D:= 

[*,*,F1 ]:  K1    K2    K3    K4    K5    K6    K7    K8    K9    K10   K11   K12   K13   K14   K15   :=
1           1.50  1.50  1.50  1.50  1.50  1.50  1.50  1.20  1.20  0.90  0.90  0.90  0.90  0.90  0.90  
2           1.50  1.50  1.50  1.50  1.50  1.50  1.50  1.20  1.20  0.90  0.90  0.90  0.90  0.90  0.90  
3           1.50  1.50  1.50  1.50  1.50  1.50  1.50  1.20  1.20  0.90  0.90  0.90  0.90  0.90  0.90  
4           1.50  1.50  1.50  1.50  1.50  1.50  1.50  1.20  1.20  0.90  0.90  0.90  0.90  0.90  0.90  
5           1.50  1.50  1.50  1.50  1.50  1.50  1.50  1.20  1.20  0.90  0.90  0.90  0.90  0.90  0.90  
6           1.50  1.50  1.50  1.50  1.50  1.50  1.50  1.20  1.20  0.90  0.90  0.90  0.90  0.90  0.90  
7           1.50  1.50  1.50  1.50  1.50  1.50  1.50  1.20  1.20  0.90  0.90  0.90  0.90  0.90  0.90  
8           1.50  1.50  1.50  1.50  1.50  1.50  1.50  1.20  1.20  0.90  0.90  0.90  0.90  0.90  0.90  
9           1.50  1.50  1.50  1.50  1.50  1.50  1.50  1.20  1.20  0.90  0.90  0.90  0.90  0.90  0.90  
10          1.50  1.50  1.50  1.50  1.50  1.50  1.50  1.20  1.20  0.90  0.90  0.90  0.90  0.90  0.90  
11          1.50  1.50  1.50  1.50  1.50  1.50  1.50  1.20  1.20  0.90  0.90  0.90  0.90  0.90  0.90  
12          1.50  1.50  1.50  1.50  1.50  1.50  1.50  1.20  1.20  0.90  0.90  0.90  0.90  0.90  0.90  
13          1.50  1.50  1.50  1.50  1.50  1.50  1.50  1.20  1.20  0.90  0.90  0.90  0.90  0.90  0.90  
14          1.50  1.50  1.50  1.50  1.50  1.50  1.50  1.20  1.20  0.90  0.90  0.90  0.90  0.90  0.90  
15          1.50  1.50  1.50  1.50  1.50  1.50  1.50  1.20  1.20  0.90  0.90  0.90  0.90  0.90  0.90  
16          1.50  1.50  1.50  1.50  1.50  1.50  1.50  1.20  1.20  0.90  0.90  0.90  0.90  0.90  0.90  
17          1.50  1.50  1.50  1.50  1.50  1.50  1.50  1.20  1.20  0.90  0.90  0.90  0.90  0.90  0.90  
18          1.50  1.50  1.50  1.50  1.50  1.50  1.50  1.20  1.20  0.90  0.90  0.90  0.90  0.90  0.90  
19          1.50  1.50  1.50  1.50  1.50  1.50  1.50  1.20  1.20  0.90  0.90  0.90  0.90  0.90  0.90  
20          1.50  1.50  1.50  1.50  1.50  1.50  1.50  1.20  1.20  0.90  0.90  0.90  0.90  0.90  0.90  
21          1.50  1.50  1.50  1.50  1.50  1.50  1.50  1.20  1.20  0.90  0.90  0.90  0.90  0.90  0.90  
22          1.50  1.50  1.50  1.50  1.50  1.50  1.50  1.20  1.20  0.90  0.90  0.90  0.90  0.90  0.90  
23          1.50  1.50  1.50  1.50  1.50  1.50  1.50  1.20  1.20  0.90  0.90  0.90  0.90  0.90  0.90  
24          1.50  1.50  1.50  1.50  1.50  1.50  1.50  1.20  1.20  0.90  0.90  0.90  0.90  0.90  0.90  
25          1.43  1.43  1.43  1.43  1.43  1.43  1.43  1.14  1.14  0.85  0.85  0.85  0.85  0.85  0.85  
26          1.43  1.43  1.43  1.43  1.43  1.43  1.43  1.14  1.14  0.85  0.85  0.85  0.85  0.85  0.85  
27          1.43  1.43  1.43  1.43  1.43  1.43  1.43  1.14  1.14  0.85  0.85  0.85  0.85  0.85  0.85  
28          1.43  1.43  1.43  1.43  1.43  1.43  1.43  1.14  1.14  0.85  0.85  0.85  0.85  0.85  0.85  
29          1.43  1.43  1.43  1.43  1.43  1.43  1.43  1.14  1.14  0.85  0.85  0.85  0.85  0.85  0.85  
30          1.43  1.43  1.43  1.43  1.43  1.43  1.43  1.14  1.14  0.85  0.85  0.85  0.85  0.85  0.85  
31          1.43  1.43  1.43  1.43  1.43  1.43  1.43  1.14  1.14  0.85  0.85  0.85  0.85  0.85  0.85  
32          1.43  1.43  1.43  1.43  1.43  1.43  1.43  1.14  1.14  0.85  0.85  0.85  0.85  0.85  0.85  
33          1.43  1.43  1.43  1.43  1.43  1.43  1.43  1.14  1.14  0.85  0.85  0.85  0.85  0.85  0.85  
34          1.50  1.50  1.50  1.50  1.50  1.50  1.50  1.20  1.20  0.90  0.90  0.90  0.90  0.90  0.90  
35          1.50  1.50  1.50  1.50  1.50  1.50  1.50  1.20  1.20  0.90  0.90  0.90  0.90  0.90  0.90  
36          1.50  1.50  1.50  1.50  1.50  1.50  1.50  1.20  1.20  0.90  0.90  0.90  0.90  0.90  0.90  
37          1.50  1.50  1.50  1.50  1.50  1.50  1.50  1.20  1.20  0.90  0.90  0.90  0.90  0.90  0.90  
38          1.50  1.50  1.50  1.50  1.50  1.50  1.50  1.20  1.20  0.90  0.90  0.90  0.90  0.90  0.90  
39          1.50  1.50  1.50  1.50  1.50  1.50  1.50  1.20  1.20  0.90  0.90  0.90  0.90  0.90  0.90  
40          1.50  1.50  1.50  1.50  1.50  1.50  1.50  1.20  1.20  0.90  0.90  0.90  0.90  0.90  0.90  
41          1.50  1.50  1.50  1.50  1.50  1.50  1.50  1.20  1.20  0.90  0.90  0.90  0.90  0.90  0.90  
42          1.50  1.50  1.50  1.50  1.50  1.50  1.50  1.20  1.20  0.90  0.90  0.90  0.90  0.90  0.90  
43          1.50  1.50  1.50  1.50  1.50  1.50  1.50  1.20  1.20  0.90  0.90  0.90  0.90  0.90  0.90  
44          1.50  1.50  1.50  1.50  1.50  1.50  1.50  1.20  1.20  0.90  0.90  0.90  0.90  0.90  0.90  
45          1.50  1.50  1.50  1.50  1.50  1.50  1.50  1.20  1.20  0.90  0.90  0.90  0.90  0.90  0.90  

[*,*,F2 ]:  K1    K2    K3    K4    K5    K6    K7    K8    K9    K10   K11   K12   K13   K14   K15   :=
1           1.55  1.55  1.55  1.55  1.55  1.55  1.55  1.24  1.24  0.93  0.93  0.93  0.93  0.93  0.93  
2           1.55  1.55  1.55  1.55  1.55  1.55  1.55  1.24  1.24  0.93  0.93  0.93  0.93  0.93  0.93  
3           1.55  1.55  1.55  1.55  1.55  1.55  1.55  1.24  1.24  0.93  0.93  0.93  0.93  0.93  0.93  
4           1.55  1.55  1.55  1.55  1.55  1.55  1.55  1.24  1.24  0.93  0.93  0.93  0.93  0.93  0.93  
5           1.55  1.55  1.55  1.55  1.55  1.55  1.55  1.24  1.24  0.93  0.93  0.93  0.93  0.93  0.93  
6           1.55  1.55  1.55  1.55  1.55  1.55  1.55  1.24  1.24  0.93  0.93  0.93  0.93  0.93  0.93  
7           1.55  1.55  1.55  1.55  1.55  1.55  1.55  1.24  1.24  0.93  0.93  0.93  0.93  0.93  0.93  
8           1.55  1.55  1.55  1.55  1.55  1.55  1.55  1.24  1.24  0.93  0.93  0.93  0.93  0.93  0.93  
9           1.55  1.55  1.55  1.55  1.55  1.55  1.55  1.24  1.24  0.93  0.93  0.93  0.93  0.93  0.93  
10          1.55  1.55  1.55  1.55  1.55  1.55  1.55  1.24  1.24  0.93  0.93  0.93  0.93  0.93  0.93  
11          1.55  1.55  1.55  1.55  1.55  1.55  1.55  1.24  1.24  0.93  0.93  0.93  0.93  0.93  0.93  
12          1.55  1.55  1.55  1.55  1.55  1.55  1.55  1.24  1.24  0.93  0.93  0.93  0.93  0.93  0.93  
13          1.55  1.55  1.55  1.55  1.55  1.55  1.55  1.24  1.24  0.93  0.93  0.93  0.93  0.93  0.93  
14          1.55  1.55  1.55  1.55  1.55  1.55  1.55  1.24  1.24  0.93  0.93  0.93  0.93  0.93  0.93  
15          1.55  1.55  1.55  1.55  1.55  1.55  1.55  1.24  1.24  0.93  0.93  0.93  0.93  0.93  0.93  
16          1.55  1.55  1.55  1.55  1.55  1.55  1.55  1.24  1.24  0.93  0.93  0.93  0.93  0.93  0.93  
17          1.55  1.55  1.55  1.55  1.55  1.55  1.55  1.24  1.24  0.93  0.93  0.93  0.93  0.93  0.93  
18          1.55  1.55  1.55  1.55  1.55  1.55  1.55  1.24  1.24  0.93  0.93  0.93  0.93  0.93  0.93  
19          1.55  1.55  1.55  1.55  1.55  1.55  1.55  1.24  1.24  0.93  0.93  0.93  0.93  0.93  0.93  
20          1.55  1.55  1.55  1.55  1.55  1.55  1.55  1.24  1.24  0.93  0.93  0.93  0.93  0.93  0.93  
21          1.55  1.55  1.55  1.55  1.55  1.55  1.55  1.24  1.24  0.93  0.93  0.93  0.93  0.93  0.93  
22          1.55  1.55  1.55  1.55  1.55  1.55  1.55  1.24  1.24  0.93  0.93  0.93  0.93  0.93  0.93  
23          1.55  1.55  1.55  1.55  1.55  1.55  1.55  1.24  1.24  0.93  0.93  0.93  0.93  0.93  0.93  
24          1.55  1.55  1.55  1.55  1.55  1.55  1.55  1.24  1.24  0.93  0.93  0.93  0.93  0.93  0.93  
25          1.48  1.48  1.48  1.48  1.48  1.48  1.48  1.18  1.18  0.88  0.88  0.88  0.88  0.88  0.88  
26          1.48  1.48  1.48  1.48  1.48  1.48  1.48  1.18  1.18  0.88  0.88  0.88  0.88  0.88  0.88  
27          1.48  1.48  1.48  1.48  1.48  1.48  1.48  1.18  1.18  0.88  0.88  0.88  0.88  0.88  0.88  
28          1.48  1.48  1.48  1.48  1.48  1.48  1.48  1.18  1.18  0.88  0.88  0.88  0.88  0.88  0.88  
29          1.48  1.48  1.48  1.48  1.48  1.48  1.48  1.18  1.18  0.88  0.88  0.88  0.88  0.88  0.88  
30          1.48  1.48  1.48  1.48  1.48  1.48  1.48  1.18  1.18  0.88  0.88  0.88  0.88  0.88  0.88  
31          1.48  1.48  1.48  1.48  1.48  1.48  1.48  1.18  1.18  0.88  0.88  0.88  0.88  0.88  0.88  
32          1.48  1.48  1.48  1.48  1.48  1.48  1.48  1.18  1.18  0.88  0.88  0.88  0.88  0.88  0.88  
33          1.48  1.48  1.48  1.48  1.48  1.48  1.48  1.18  1.18  0.88  0.88  0.88  0.88  0.88  0.88  
34          1.55  1.55  1.55  1.55  1.55  1.55  1.55  1.24  1.24  0.93  0.93  0.93  0.93  0.93  0.93  
35          1.55  1.55  1.55  1.55  1.55  1.55  1.55  1.24  1.24  0.93  0.93  0.93  0.93  0.93  0.93  
36          1.55  1.55  1.55  1.55  1.55  1.55  1.55  1.24  1.24  0.93  0.93  0.93  0.93  0.93  0.93  
37          1.55  1.55  1.55  1.55  1.55  1.55  1.55  1.24  1.24  0.93  0.93  0.93  0.93  0.93  0.93  
38          1.55  1.55  1.55  1.55  1.55  1.55  1.55  1.24  1.24  0.93  0.93  0.93  0.93  0.93  0.93  
39          1.55  1.55  1.55  1.55  1.55  1.55  1.55  1.24  1.24  0.93  0.93  0.93  0.93  0.93  0.93  
40          1.55  1.55  1.55  1.55  1.55  1.55  1.55  1.24  1.24  0.93  0.93  0.93  0.93  0.93  0.93  
41          1.55  1.55  1.55  1.55  1.55  1.55  1.55  1.24  1.24  0.93  0.93  0.93  0.93  0.93  0.93  
42          1.55  1.55  1.55  1.55  1.55  1.55  1.55  1.24  1.24  0.93  0.93  0.93  0.93  0.93  0.93  
43          1.55  1.55  1.55  1.55  1.55  1.55  1.55  1.24  1.24  0.93  0.93  0.93  0.93  0.93  0.93  
44          1.55  1.55  1.55  1.55  1.55  1.55  1.55  1.24  1.24  0.93  0.93  0.93  0.93  0.93  0.93  
45          1.55  1.55  1.55  1.55  1.55  1.55  1.55  1.24  1.24  0.93  0.93  0.93  0.93  0.93  0.93  

[*,*,F3 ]:  K1    K2    K3    K4    K5    K6    K7    K8    K9    K10   K11   K12   K13   K14   K15   :=
1           1.85  1.85  1.85  1.85  1.85  1.85  1.85  1.48  1.48  1.11  1.11  1.11  1.11  1.11  1.11  
2           1.85  1.85  1.85  1.85  1.85  1.85  1.85  1.48  1.48  1.11  1.11  1.11  1.11  1.11  1.11  
3           1.85  1.85  1.85  1.85  1.85  1.85  1.85  1.48  1.48  1.11  1.11  1.11  1.11  1.11  1.11  
4           1.85  1.85  1.85  1.85  1.85  1.85  1.85  1.48  1.48  1.11  1.11  1.11  1.11  1.11  1.11  
5           1.85  1.85  1.85  1.85  1.85  1.85  1.85  1.48  1.48  1.11  1.11  1.11  1.11  1.11  1.11  
6           1.85  1.85  1.85  1.85  1.85  1.85  1.85  1.48  1.48  1.11  1.11  1.11  1.11  1.11  1.11  
7           1.85  1.85  1.85  1.85  1.85  1.85  1.85  1.48  1.48  1.11  1.11  1.11  1.11  1.11  1.11  
8           1.85  1.85  1.85  1.85  1.85  1.85  1.85  1.48  1.48  1.11  1.11  1.11  1.11  1.11  1.11  
9           1.85  1.85  1.85  1.85  1.85  1.85  1.85  1.48  1.48  1.11  1.11  1.11  1.11  1.11  1.11  
10          1.85  1.85  1.85  1.85  1.85  1.85  1.85  1.48  1.48  1.11  1.11  1.11  1.11  1.11  1.11  
11          1.85  1.85  1.85  1.85  1.85  1.85  1.85  1.48  1.48  1.11  1.11  1.11  1.11  1.11  1.11  
12          1.85  1.85  1.85  1.85  1.85  1.85  1.85  1.48  1.48  1.11  1.11  1.11  1.11  1.11  1.11  
13          1.85  1.85  1.85  1.85  1.85  1.85  1.85  1.48  1.48  1.11  1.11  1.11  1.11  1.11  1.11  
14          1.85  1.85  1.85  1.85  1.85  1.85  1.85  1.48  1.48  1.11  1.11  1.11  1.11  1.11  1.11  
15          1.85  1.85  1.85  1.85  1.85  1.85  1.85  1.48  1.48  1.11  1.11  1.11  1.11  1.11  1.11  
16          1.85  1.85  1.85  1.85  1.85  1.85  1.85  1.48  1.48  1.11  1.11  1.11  1.11  1.11  1.11  
17          1.85  1.85  1.85  1.85  1.85  1.85  1.85  1.48  1.48  1.11  1.11  1.11  1.11  1.11  1.11  
18          1.85  1.85  1.85  1.85  1.85  1.85  1.85  1.48  1.48  1.11  1.11  1.11  1.11  1.11  1.11  
19          1.85  1.85  1.85  1.85  1.85  1.85  1.85  1.48  1.48  1.11  1.11  1.11  1.11  1.11  1.11  
20          1.85  1.85  1.85  1.85  1.85  1.85  1.85  1.48  1.48  1.11  1.11  1.11  1.11  1.11  1.11  
21          1.85  1.85  1.85  1.85  1.85  1.85  1.85  1.48  1.48  1.11  1.11  1.11  1.11  1.11  1.11  
22          1.85  1.85  1.85  1.85  1.85  1.85  1.85  1.48  1.48  1.11  1.11  1.11  1.11  1.11  1.11  
23          1.85  1.85  1.85  1.85  1.85  1.85  1.85  1.48  1.48  1.11  1.11  1.11  1.11  1.11  1.11  
24          1.85  1.85  1.85  1.85  1.85  1.85  1.85  1.48  1.48  1.11  1.11  1.11  1.11  1.11  1.11  
25          1.76  1.76  1.76  1.76  1.76  1.76  1.76  1.40  1.40  1.05  1.05  1.05  1.05  1.05  1.05  
26          1.76  1.76  1.76  1.76  1.76  1.76  1.76  1.40  1.40  1.05  1.05  1.05  1.05  1.05  1.05  
27          1.76  1.76  1.76  1.76  1.76  1.76  1.76  1.40  1.40  1.05  1.05  1.05  1.05  1.05  1.05  
28          1.76  1.76  1.76  1.76  1.76  1.76  1.76  1.40  1.40  1.05  1.05  1.05  1.05  1.05  1.05  
29          1.76  1.76  1.76  1.76  1.76  1.76  1.76  1.40  1.40  1.05  1.05  1.05  1.05  1.05  1.05  
30          1.76  1.76  1.76  1.76  1.76  1.76  1.76  1.40  1.40  1.05  1.05  1.05  1.05  1.05  1.05  
31          1.76  1.76  1.76  1.76  1.76  1.76  1.76  1.40  1.40  1.05  1.05  1.05  1.05  1.05  1.05  
32          1.76  1.76  1.76  1.76  1.76  1.76  1.76  1.40  1.40  1.05  1.05  1.05  1.05  1.05  1.05  
33          1.76  1.76  1.76  1.76  1.76  1.76  1.76  1.40  1.40  1.05  1.05  1.05  1.05  1.05  1.05  
34          1.85  1.85  1.85  1.85  1.85  1.85  1.85  1.48  1.48  1.11  1.11  1.11  1.11  1.11  1.11  
35          1.85  1.85  1.85  1.85  1.85  1.85  1.85  1.48  1.48  1.11  1.11  1.11  1.11  1.11  1.11  
36          1.85  1.85  1.85  1.85  1.85  1.85  1.85  1.48  1.48  1.11  1.11  1.11  1.11  1.11  1.11  
37          1.85  1.85  1.85  1.85  1.85  1.85  1.85  1.48  1.48  1.11  1.11  1.11  1.11  1.11  1.11  
38          1.85  1.85  1.85  1.85  1.85  1.85  1.85  1.48  1.48  1.11  1.11  1.11  1.11  1.11  1.11  
39          1.85  1.85  1.85  1.85  1.85  1.85  1.85  1.48  1.48  1.11  1.11  1.11  1.11  1.11  1.11  
40          1.85  1.85  1.85  1.85  1.85  1.85  1.85  1.48  1.48  1.11  1.11  1.11  1.11  1.11  1.11  
41          1.85  1.85  1.85  1.85  1.85  1.85  1.85  1.48  1.48  1.11  1.11  1.11  1.11  1.11  1.11  
42          1.85  1.85  1.85  1.85  1.85  1.85  1.85  1.48  1.48  1.11  1.11  1.11  1.11  1.11  1.11  
43          1.85  1.85  1.85  1.85  1.85  1.85  1.85  1.48  1.48  1.11  1.11  1.11  1.11  1.11  1.11  
44          1.85  1.85  1.85  1.85  1.85  1.85  1.85  1.48  1.48  1.11  1.11  1.11  1.11  1.11  1.11  
45          1.85  1.85  1.85  1.85  1.85  1.85  1.85  1.48  1.48  1.11  1.11  1.11  1.11  1.11  1.11  
; # downloads resource k can do at front f in time t if intermediate time slot

param E:= 

[*,*,F1 ]:  K1    K2    K3    K4    K5    K6    K7    K8    K9    K10   K11   K12   K13   K14   K15   :=
1           0.44  0.17  0.59  0.27  0.50  0.23  0.68  0.11  0.13  0.39  0.11  0.17  0.18  0.25  0.31  
2           0.44  0.17  0.59  0.27  0.50  0.23  0.68  0.11  0.13  0.39  0.11  0.17  0.18  0.25  0.31  
3           0.44  0.17  0.59  0.27  0.50  0.23  0.68  0.11  0.13  0.39  0.11  0.17  0.18  0.25  0.31  
4           0.44  0.17  0.59  0.27  0.50  0.23  0.68  0.11  0.13  0.39  0.11  0.17  0.18  0.25  0.31  
5           0.44  0.17  0.59  0.27  0.50  0.23  0.68  0.11  0.13  0.39  0.11  0.17  0.18  0.25  0.31  
6           0.44  0.17  0.59  0.27  0.50  0.23  0.68  0.11  0.13  0.39  0.11  0.17  0.18  0.25  0.31  
7           0.44  0.17  0.59  0.27  0.50  0.23  0.68  0.11  0.13  0.39  0.11  0.17  0.18  0.25  0.31  
8           0.44  0.17  0.59  0.27  0.50  0.23  0.68  0.11  0.13  0.39  0.11  0.17  0.18  0.25  0.31  
9           0.44  0.17  0.59  0.27  0.50  0.23  0.68  0.11  0.13  0.39  0.11  0.17  0.18  0.25  0.31  
10          0.44  0.17  0.59  0.27  0.50  0.23  0.68  0.11  0.13  0.39  0.11  0.17  0.18  0.25  0.31  
11          0.44  0.17  0.59  0.27  0.50  0.23  0.68  0.11  0.13  0.39  0.11  0.17  0.18  0.25  0.31  
12          0.44  0.17  0.59  0.27  0.50  0.23  0.68  0.11  0.13  0.39  0.11  0.17  0.18  0.25  0.31  
13          0.44  0.17  0.59  0.27  0.50  0.23  0.68  0.11  0.13  0.39  0.11  0.17  0.18  0.25  0.31  
14          0.44  0.17  0.59  0.27  0.50  0.23  0.68  0.11  0.13  0.39  0.11  0.17  0.18  0.25  0.31  
15          0.44  0.17  0.59  0.27  0.50  0.23  0.68  0.11  0.13  0.39  0.11  0.17  0.18  0.25  0.31  
16          0.44  0.17  0.59  0.27  0.50  0.23  0.68  0.11  0.13  0.39  0.11  0.17  0.18  0.25  0.31  
17          0.44  0.17  0.59  0.27  0.50  0.23  0.68  0.11  0.13  0.39  0.11  0.17  0.18  0.25  0.31  
18          0.44  0.17  0.59  0.27  0.50  0.23  0.68  0.11  0.13  0.39  0.11  0.17  0.18  0.25  0.31  
19          0.44  0.17  0.59  0.27  0.50  0.23  0.68  0.11  0.13  0.39  0.11  0.17  0.18  0.25  0.31  
20          0.44  0.17  0.59  0.27  0.50  0.23  0.68  0.11  0.13  0.39  0.11  0.17  0.18  0.25  0.31  
21          0.44  0.17  0.59  0.27  0.50  0.23  0.68  0.11  0.13  0.39  0.11  0.17  0.18  0.25  0.31  
22          0.44  0.17  0.59  0.27  0.50  0.23  0.68  0.11  0.13  0.39  0.11  0.17  0.18  0.25  0.31  
23          0.44  0.17  0.59  0.27  0.50  0.23  0.68  0.11  0.13  0.39  0.11  0.17  0.18  0.25  0.31  
24          0.44  0.17  0.59  0.27  0.50  0.23  0.68  0.11  0.13  0.39  0.11  0.17  0.18  0.25  0.31  
25          0.41  0.16  0.56  0.26  0.47  0.21  0.64  0.10  0.13  0.37  0.10  0.16  0.17  0.24  0.30  
26          0.41  0.16  0.56  0.26  0.47  0.21  0.64  0.10  0.13  0.37  0.10  0.16  0.17  0.24  0.30  
27          0.41  0.16  0.56  0.26  0.47  0.21  0.64  0.10  0.13  0.37  0.10  0.16  0.17  0.24  0.30  
28          0.41  0.16  0.56  0.26  0.47  0.21  0.64  0.10  0.13  0.37  0.10  0.16  0.17  0.24  0.30  
29          0.41  0.16  0.56  0.26  0.47  0.21  0.64  0.10  0.13  0.37  0.10  0.16  0.17  0.24  0.30  
30          0.41  0.16  0.56  0.26  0.47  0.21  0.64  0.10  0.13  0.37  0.10  0.16  0.17  0.24  0.30  
31          0.41  0.16  0.56  0.26  0.47  0.21  0.64  0.10  0.13  0.37  0.10  0.16  0.17  0.24  0.30  
32          0.41  0.16  0.56  0.26  0.47  0.21  0.64  0.10  0.13  0.37  0.10  0.16  0.17  0.24  0.30  
33          0.41  0.16  0.56  0.26  0.47  0.21  0.64  0.10  0.13  0.37  0.10  0.16  0.17  0.24  0.30  
34          0.44  0.17  0.59  0.27  0.50  0.23  0.68  0.11  0.13  0.39  0.11  0.17  0.18  0.25  0.31  
35          0.44  0.17  0.59  0.27  0.50  0.23  0.68  0.11  0.13  0.39  0.11  0.17  0.18  0.25  0.31  
36          0.44  0.17  0.59  0.27  0.50  0.23  0.68  0.11  0.13  0.39  0.11  0.17  0.18  0.25  0.31  
37          0.44  0.17  0.59  0.27  0.50  0.23  0.68  0.11  0.13  0.39  0.11  0.17  0.18  0.25  0.31  
38          0.44  0.17  0.59  0.27  0.50  0.23  0.68  0.11  0.13  0.39  0.11  0.17  0.18  0.25  0.31  
39          0.44  0.17  0.59  0.27  0.50  0.23  0.68  0.11  0.13  0.39  0.11  0.17  0.18  0.25  0.31  
40          0.44  0.17  0.59  0.27  0.50  0.23  0.68  0.11  0.13  0.39  0.11  0.17  0.18  0.25  0.31  
41          0.44  0.17  0.59  0.27  0.50  0.23  0.68  0.11  0.13  0.39  0.11  0.17  0.18  0.25  0.31  
42          0.44  0.17  0.59  0.27  0.50  0.23  0.68  0.11  0.13  0.39  0.11  0.17  0.18  0.25  0.31  
43          0.44  0.17  0.59  0.27  0.50  0.23  0.68  0.11  0.13  0.39  0.11  0.17  0.18  0.25  0.31  
44          0.44  0.17  0.59  0.27  0.50  0.23  0.68  0.11  0.13  0.39  0.11  0.17  0.18  0.25  0.31  
45          0.44  0.17  0.59  0.27  0.50  0.23  0.68  0.11  0.13  0.39  0.11  0.17  0.18  0.25  0.31  

[*,*,F2 ]:  K1    K2    K3    K4    K5    K6    K7    K8    K9    K10   K11   K12   K13   K14   K15   :=
1           0.53  0.28  0.61  0.36  0.39  0.36  0.73  0.15  0.11  0.46  0.14  0.17  0.20  0.25  0.30  
2           0.53  0.28  0.61  0.36  0.39  0.36  0.73  0.15  0.11  0.46  0.14  0.17  0.20  0.25  0.30  
3           0.53  0.28  0.61  0.36  0.39  0.36  0.73  0.15  0.11  0.46  0.14  0.17  0.20  0.25  0.30  
4           0.53  0.28  0.61  0.36  0.39  0.36  0.73  0.15  0.11  0.46  0.14  0.17  0.20  0.25  0.30  
5           0.53  0.28  0.61  0.36  0.39  0.36  0.73  0.15  0.11  0.46  0.14  0.17  0.20  0.25  0.30  
6           0.53  0.28  0.61  0.36  0.39  0.36  0.73  0.15  0.11  0.46  0.14  0.17  0.20  0.25  0.30  
7           0.53  0.28  0.61  0.36  0.39  0.36  0.73  0.15  0.11  0.46  0.14  0.17  0.20  0.25  0.30  
8           0.53  0.28  0.61  0.36  0.39  0.36  0.73  0.15  0.11  0.46  0.14  0.17  0.20  0.25  0.30  
9           0.53  0.28  0.61  0.36  0.39  0.36  0.73  0.15  0.11  0.46  0.14  0.17  0.20  0.25  0.30  
10          0.53  0.28  0.61  0.36  0.39  0.36  0.73  0.15  0.11  0.46  0.14  0.17  0.20  0.25  0.30  
11          0.53  0.28  0.61  0.36  0.39  0.36  0.73  0.15  0.11  0.46  0.14  0.17  0.20  0.25  0.30  
12          0.53  0.28  0.61  0.36  0.39  0.36  0.73  0.15  0.11  0.46  0.14  0.17  0.20  0.25  0.30  
13          0.53  0.28  0.61  0.36  0.39  0.36  0.73  0.15  0.11  0.46  0.14  0.17  0.20  0.25  0.30  
14          0.53  0.28  0.61  0.36  0.39  0.36  0.73  0.15  0.11  0.46  0.14  0.17  0.20  0.25  0.30  
15          0.53  0.28  0.61  0.36  0.39  0.36  0.73  0.15  0.11  0.46  0.14  0.17  0.20  0.25  0.30  
16          0.53  0.28  0.61  0.36  0.39  0.36  0.73  0.15  0.11  0.46  0.14  0.17  0.20  0.25  0.30  
17          0.53  0.28  0.61  0.36  0.39  0.36  0.73  0.15  0.11  0.46  0.14  0.17  0.20  0.25  0.30  
18          0.53  0.28  0.61  0.36  0.39  0.36  0.73  0.15  0.11  0.46  0.14  0.17  0.20  0.25  0.30  
19          0.53  0.28  0.61  0.36  0.39  0.36  0.73  0.15  0.11  0.46  0.14  0.17  0.20  0.25  0.30  
20          0.53  0.28  0.61  0.36  0.39  0.36  0.73  0.15  0.11  0.46  0.14  0.17  0.20  0.25  0.30  
21          0.53  0.28  0.61  0.36  0.39  0.36  0.73  0.15  0.11  0.46  0.14  0.17  0.20  0.25  0.30  
22          0.53  0.28  0.61  0.36  0.39  0.36  0.73  0.15  0.11  0.46  0.14  0.17  0.20  0.25  0.30  
23          0.53  0.28  0.61  0.36  0.39  0.36  0.73  0.15  0.11  0.46  0.14  0.17  0.20  0.25  0.30  
24          0.53  0.28  0.61  0.36  0.39  0.36  0.73  0.15  0.11  0.46  0.14  0.17  0.20  0.25  0.30  
25          0.50  0.27  0.58  0.34  0.37  0.34  0.69  0.14  0.11  0.43  0.13  0.16  0.19  0.24  0.28  
26          0.50  0.27  0.58  0.34  0.37  0.34  0.69  0.14  0.11  0.43  0.13  0.16  0.19  0.24  0.28  
27          0.50  0.27  0.58  0.34  0.37  0.34  0.69  0.14  0.11  0.43  0.13  0.16  0.19  0.24  0.28  
28          0.50  0.27  0.58  0.34  0.37  0.34  0.69  0.14  0.11  0.43  0.13  0.16  0.19  0.24  0.28  
29          0.50  0.27  0.58  0.34  0.37  0.34  0.69  0.14  0.11  0.43  0.13  0.16  0.19  0.24  0.28  
30          0.50  0.27  0.58  0.34  0.37  0.34  0.69  0.14  0.11  0.43  0.13  0.16  0.19  0.24  0.28  
31          0.50  0.27  0.58  0.34  0.37  0.34  0.69  0.14  0.11  0.43  0.13  0.16  0.19  0.24  0.28  
32          0.50  0.27  0.58  0.34  0.37  0.34  0.69  0.14  0.11  0.43  0.13  0.16  0.19  0.24  0.28  
33          0.50  0.27  0.58  0.34  0.37  0.34  0.69  0.14  0.11  0.43  0.13  0.16  0.19  0.24  0.28  
34          0.53  0.28  0.61  0.36  0.39  0.36  0.73  0.15  0.11  0.46  0.14  0.17  0.20  0.25  0.30  
35          0.53  0.28  0.61  0.36  0.39  0.36  0.73  0.15  0.11  0.46  0.14  0.17  0.20  0.25  0.30  
36          0.53  0.28  0.61  0.36  0.39  0.36  0.73  0.15  0.11  0.46  0.14  0.17  0.20  0.25  0.30  
37          0.53  0.28  0.61  0.36  0.39  0.36  0.73  0.15  0.11  0.46  0.14  0.17  0.20  0.25  0.30  
38          0.53  0.28  0.61  0.36  0.39  0.36  0.73  0.15  0.11  0.46  0.14  0.17  0.20  0.25  0.30  
39          0.53  0.28  0.61  0.36  0.39  0.36  0.73  0.15  0.11  0.46  0.14  0.17  0.20  0.25  0.30  
40          0.53  0.28  0.61  0.36  0.39  0.36  0.73  0.15  0.11  0.46  0.14  0.17  0.20  0.25  0.30  
41          0.53  0.28  0.61  0.36  0.39  0.36  0.73  0.15  0.11  0.46  0.14  0.17  0.20  0.25  0.30  
42          0.53  0.28  0.61  0.36  0.39  0.36  0.73  0.15  0.11  0.46  0.14  0.17  0.20  0.25  0.30  
43          0.53  0.28  0.61  0.36  0.39  0.36  0.73  0.15  0.11  0.46  0.14  0.17  0.20  0.25  0.30  
44          0.53  0.28  0.61  0.36  0.39  0.36  0.73  0.15  0.11  0.46  0.14  0.17  0.20  0.25  0.30  
45          0.53  0.28  0.61  0.36  0.39  0.36  0.73  0.15  0.11  0.46  0.14  0.17  0.20  0.25  0.30  

[*,*,F3 ]:  K1    K2    K3    K4    K5    K6    K7    K8    K9    K10   K11   K12   K13   K14   K15   :=
1           0.56  0.33  0.82  0.30  0.52  0.46  1.00  0.21  0.04  0.52  0.13  0.21  0.18  0.30  0.37  
2           0.56  0.33  0.82  0.30  0.52  0.46  1.00  0.21  0.04  0.52  0.13  0.21  0.18  0.30  0.37  
3           0.56  0.33  0.82  0.30  0.52  0.46  1.00  0.21  0.04  0.52  0.13  0.21  0.18  0.30  0.37  
4           0.56  0.33  0.82  0.30  0.52  0.46  1.00  0.21  0.04  0.52  0.13  0.21  0.18  0.30  0.37  
5           0.56  0.33  0.82  0.30  0.52  0.46  1.00  0.21  0.04  0.52  0.13  0.21  0.18  0.30  0.37  
6           0.56  0.33  0.82  0.30  0.52  0.46  1.00  0.21  0.04  0.52  0.13  0.21  0.18  0.30  0.37  
7           0.56  0.33  0.82  0.30  0.52  0.46  1.00  0.21  0.04  0.52  0.13  0.21  0.18  0.30  0.37  
8           0.56  0.33  0.82  0.30  0.52  0.46  1.00  0.21  0.04  0.52  0.13  0.21  0.18  0.30  0.37  
9           0.56  0.33  0.82  0.30  0.52  0.46  1.00  0.21  0.04  0.52  0.13  0.21  0.18  0.30  0.37  
10          0.56  0.33  0.82  0.30  0.52  0.46  1.00  0.21  0.04  0.52  0.13  0.21  0.18  0.30  0.37  
11          0.56  0.33  0.82  0.30  0.52  0.46  1.00  0.21  0.04  0.52  0.13  0.21  0.18  0.30  0.37  
12          0.56  0.33  0.82  0.30  0.52  0.46  1.00  0.21  0.04  0.52  0.13  0.21  0.18  0.30  0.37  
13          0.56  0.33  0.82  0.30  0.52  0.46  1.00  0.21  0.04  0.52  0.13  0.21  0.18  0.30  0.37  
14          0.56  0.33  0.82  0.30  0.52  0.46  1.00  0.21  0.04  0.52  0.13  0.21  0.18  0.30  0.37  
15          0.56  0.33  0.82  0.30  0.52  0.46  1.00  0.21  0.04  0.52  0.13  0.21  0.18  0.30  0.37  
16          0.56  0.33  0.82  0.30  0.52  0.46  1.00  0.21  0.04  0.52  0.13  0.21  0.18  0.30  0.37  
17          0.56  0.33  0.82  0.30  0.52  0.46  1.00  0.21  0.04  0.52  0.13  0.21  0.18  0.30  0.37  
18          0.56  0.33  0.82  0.30  0.52  0.46  1.00  0.21  0.04  0.52  0.13  0.21  0.18  0.30  0.37  
19          0.56  0.33  0.82  0.30  0.52  0.46  1.00  0.21  0.04  0.52  0.13  0.21  0.18  0.30  0.37  
20          0.56  0.33  0.82  0.30  0.52  0.46  1.00  0.21  0.04  0.52  0.13  0.21  0.18  0.30  0.37  
21          0.56  0.33  0.82  0.30  0.52  0.46  1.00  0.21  0.04  0.52  0.13  0.21  0.18  0.30  0.37  
22          0.56  0.33  0.82  0.30  0.52  0.46  1.00  0.21  0.04  0.52  0.13  0.21  0.18  0.30  0.37  
23          0.56  0.33  0.82  0.30  0.52  0.46  1.00  0.21  0.04  0.52  0.13  0.21  0.18  0.30  0.37  
24          0.56  0.33  0.82  0.30  0.52  0.46  1.00  0.21  0.04  0.52  0.13  0.21  0.18  0.30  0.37  
25          0.53  0.32  0.77  0.28  0.49  0.44  0.95  0.20  0.04  0.50  0.13  0.20  0.17  0.28  0.35  
26          0.53  0.32  0.77  0.28  0.49  0.44  0.95  0.20  0.04  0.50  0.13  0.20  0.17  0.28  0.35  
27          0.53  0.32  0.77  0.28  0.49  0.44  0.95  0.20  0.04  0.50  0.13  0.20  0.17  0.28  0.35  
28          0.53  0.32  0.77  0.28  0.49  0.44  0.95  0.20  0.04  0.50  0.13  0.20  0.17  0.28  0.35  
29          0.53  0.32  0.77  0.28  0.49  0.44  0.95  0.20  0.04  0.50  0.13  0.20  0.17  0.28  0.35  
30          0.53  0.32  0.77  0.28  0.49  0.44  0.95  0.20  0.04  0.50  0.13  0.20  0.17  0.28  0.35  
31          0.53  0.32  0.77  0.28  0.49  0.44  0.95  0.20  0.04  0.50  0.13  0.20  0.17  0.28  0.35  
32          0.53  0.32  0.77  0.28  0.49  0.44  0.95  0.20  0.04  0.50  0.13  0.20  0.17  0.28  0.35  
33          0.53  0.32  0.77  0.28  0.49  0.44  0.95  0.20  0.04  0.50  0.13  0.20  0.17  0.28  0.35  
34          0.56  0.33  0.82  0.30  0.52  0.46  1.00  0.21  0.04  0.52  0.13  0.21  0.18  0.30  0.37  
35          0.56  0.33  0.82  0.30  0.52  0.46  1.00  0.21  0.04  0.52  0.13  0.21  0.18  0.30  0.37  
36          0.56  0.33  0.82  0.30  0.52  0.46  1.00  0.21  0.04  0.52  0.13  0.21  0.18  0.30  0.37  
37          0.56  0.33  0.82  0.30  0.52  0.46  1.00  0.21  0.04  0.52  0.13  0.21  0.18  0.30  0.37  
38          0.56  0.33  0.82  0.30  0.52  0.46  1.00  0.21  0.04  0.52  0.13  0.21  0.18  0.30  0.37  
39          0.56  0.33  0.82  0.30  0.52  0.46  1.00  0.21  0.04  0.52  0.13  0.21  0.18  0.30  0.37  
40          0.56  0.33  0.82  0.30  0.52  0.46  1.00  0.21  0.04  0.52  0.13  0.21  0.18  0.30  0.37  
41          0.56  0.33  0.82  0.30  0.52  0.46  1.00  0.21  0.04  0.52  0.13  0.21  0.18  0.30  0.37  
42          0.56  0.33  0.82  0.30  0.52  0.46  1.00  0.21  0.04  0.52  0.13  0.21  0.18  0.30  0.37  
43          0.56  0.33  0.82  0.30  0.52  0.46  1.00  0.21  0.04  0.52  0.13  0.21  0.18  0.30  0.37  
44          0.56  0.33  0.82  0.30  0.52  0.46  1.00  0.21  0.04  0.52  0.13  0.21  0.18  0.30  0.37  
45          0.56  0.33  0.82  0.30  0.52  0.46  1.00  0.21  0.04  0.52  0.13  0.21  0.18  0.30  0.37  
; # downloads resource k can do at front f in time t if starting or ending flight

param W: 
	F1        F2        F3        :=
1	471.57    235.79    235.79    
2	1886.28   943.14    943.14    
3	1886.28   943.14    943.14    
4	1886.28   943.14    943.14    
5	1886.28   943.14    943.14    
6	1886.28   943.14    943.14    
7	1886.28   943.14    943.14    
8	1886.28   943.14    943.14    
9	1886.28   943.14    943.14    
10	1886.28   943.14    943.14    
11	1886.28   943.14    943.14    
12	1886.28   943.14    943.14    
13	1886.28   943.14    943.14    
14	1886.28   943.14    943.14    
15	1886.28   943.14    943.14    
16	1886.28   943.14    943.14    
17	1886.28   943.14    943.14    
18	1886.28   943.14    943.14    
19	1886.28   943.14    943.14    
20	1886.28   943.14    943.14    
21	1886.28   943.14    943.14    
22	1886.28   943.14    943.14    
23	1886.28   943.14    943.14    
24	1886.28   943.14    943.14    
25	1886.28   943.14    943.14    
26	1886.28   943.14    943.14    
27	1886.28   943.14    943.14    
28	1886.28   943.14    943.14    
29	1886.28   943.14    943.14    
30	1886.28   943.14    943.14    
31	1886.28   943.14    943.14    
32	1886.28   943.14    943.14    
33	1886.28   943.14    943.14    
34	1886.28   943.14    943.14    
35	1886.28   943.14    943.14    
36	1886.28   943.14    943.14    
37	1886.28   943.14    943.14    
38	1886.28   943.14    943.14    
39	1886.28   943.14    943.14    
40	1886.28   943.14    943.14    
41	1886.28   943.14    943.14    
42	1886.28   943.14    943.14    
43	1886.28   943.14    943.14    
44	1886.28   943.14    943.14    
45	471.57    235.79    235.79    
; # water needed at front f in time slot t

param M := 100000000; 

param a1:= 10000000;

param a2:= 100;

param a3:= 0.0001;
